c *********************************
c * Circuit generated by BenCGen
c *
c * CarrySaveAdder_148_148_148_148_149
c *
c * Ports with 1 gate(s): 2
c * Ports with 2 gate(s): 741
c * Total gates: 743
c *********************************
p cnf 1187 2523
1 743 0
-1 -743 0
1 -742 0
743 -742 0
-1 -743 742 0
742 -593 0
-742 593 0
1 149 -744 0
-1 149 744 0
1 -149 744 0
-1 -149 -744 0
744 297 -445 0
-744 297 445 0
744 -297 445 0
-744 -297 -445 0
297 -745 0
744 -745 0
-297 -744 745 0
149 -746 0
1 -746 0
-149 -1 746 0
-745 594 0
-746 594 0
745 746 -594 0
2 150 -747 0
-2 150 747 0
2 -150 747 0
-2 -150 -747 0
747 298 -446 0
-747 298 446 0
747 -298 446 0
-747 -298 -446 0
298 -748 0
747 -748 0
-298 -747 748 0
150 -749 0
2 -749 0
-150 -2 749 0
-748 595 0
-749 595 0
748 749 -595 0
3 151 -750 0
-3 151 750 0
3 -151 750 0
-3 -151 -750 0
750 299 -447 0
-750 299 447 0
750 -299 447 0
-750 -299 -447 0
299 -751 0
750 -751 0
-299 -750 751 0
151 -752 0
3 -752 0
-151 -3 752 0
-751 596 0
-752 596 0
751 752 -596 0
4 152 -753 0
-4 152 753 0
4 -152 753 0
-4 -152 -753 0
753 300 -448 0
-753 300 448 0
753 -300 448 0
-753 -300 -448 0
300 -754 0
753 -754 0
-300 -753 754 0
152 -755 0
4 -755 0
-152 -4 755 0
-754 597 0
-755 597 0
754 755 -597 0
5 153 -756 0
-5 153 756 0
5 -153 756 0
-5 -153 -756 0
756 301 -449 0
-756 301 449 0
756 -301 449 0
-756 -301 -449 0
301 -757 0
756 -757 0
-301 -756 757 0
153 -758 0
5 -758 0
-153 -5 758 0
-757 598 0
-758 598 0
757 758 -598 0
6 154 -759 0
-6 154 759 0
6 -154 759 0
-6 -154 -759 0
759 302 -450 0
-759 302 450 0
759 -302 450 0
-759 -302 -450 0
302 -760 0
759 -760 0
-302 -759 760 0
154 -761 0
6 -761 0
-154 -6 761 0
-760 599 0
-761 599 0
760 761 -599 0
7 155 -762 0
-7 155 762 0
7 -155 762 0
-7 -155 -762 0
762 303 -451 0
-762 303 451 0
762 -303 451 0
-762 -303 -451 0
303 -763 0
762 -763 0
-303 -762 763 0
155 -764 0
7 -764 0
-155 -7 764 0
-763 600 0
-764 600 0
763 764 -600 0
8 156 -765 0
-8 156 765 0
8 -156 765 0
-8 -156 -765 0
765 304 -452 0
-765 304 452 0
765 -304 452 0
-765 -304 -452 0
304 -766 0
765 -766 0
-304 -765 766 0
156 -767 0
8 -767 0
-156 -8 767 0
-766 601 0
-767 601 0
766 767 -601 0
9 157 -768 0
-9 157 768 0
9 -157 768 0
-9 -157 -768 0
768 305 -453 0
-768 305 453 0
768 -305 453 0
-768 -305 -453 0
305 -769 0
768 -769 0
-305 -768 769 0
157 -770 0
9 -770 0
-157 -9 770 0
-769 602 0
-770 602 0
769 770 -602 0
10 158 -771 0
-10 158 771 0
10 -158 771 0
-10 -158 -771 0
771 306 -454 0
-771 306 454 0
771 -306 454 0
-771 -306 -454 0
306 -772 0
771 -772 0
-306 -771 772 0
158 -773 0
10 -773 0
-158 -10 773 0
-772 603 0
-773 603 0
772 773 -603 0
11 159 -774 0
-11 159 774 0
11 -159 774 0
-11 -159 -774 0
774 307 -455 0
-774 307 455 0
774 -307 455 0
-774 -307 -455 0
307 -775 0
774 -775 0
-307 -774 775 0
159 -776 0
11 -776 0
-159 -11 776 0
-775 604 0
-776 604 0
775 776 -604 0
12 160 -777 0
-12 160 777 0
12 -160 777 0
-12 -160 -777 0
777 308 -456 0
-777 308 456 0
777 -308 456 0
-777 -308 -456 0
308 -778 0
777 -778 0
-308 -777 778 0
160 -779 0
12 -779 0
-160 -12 779 0
-778 605 0
-779 605 0
778 779 -605 0
13 161 -780 0
-13 161 780 0
13 -161 780 0
-13 -161 -780 0
780 309 -457 0
-780 309 457 0
780 -309 457 0
-780 -309 -457 0
309 -781 0
780 -781 0
-309 -780 781 0
161 -782 0
13 -782 0
-161 -13 782 0
-781 606 0
-782 606 0
781 782 -606 0
14 162 -783 0
-14 162 783 0
14 -162 783 0
-14 -162 -783 0
783 310 -458 0
-783 310 458 0
783 -310 458 0
-783 -310 -458 0
310 -784 0
783 -784 0
-310 -783 784 0
162 -785 0
14 -785 0
-162 -14 785 0
-784 607 0
-785 607 0
784 785 -607 0
15 163 -786 0
-15 163 786 0
15 -163 786 0
-15 -163 -786 0
786 311 -459 0
-786 311 459 0
786 -311 459 0
-786 -311 -459 0
311 -787 0
786 -787 0
-311 -786 787 0
163 -788 0
15 -788 0
-163 -15 788 0
-787 608 0
-788 608 0
787 788 -608 0
16 164 -789 0
-16 164 789 0
16 -164 789 0
-16 -164 -789 0
789 312 -460 0
-789 312 460 0
789 -312 460 0
-789 -312 -460 0
312 -790 0
789 -790 0
-312 -789 790 0
164 -791 0
16 -791 0
-164 -16 791 0
-790 609 0
-791 609 0
790 791 -609 0
17 165 -792 0
-17 165 792 0
17 -165 792 0
-17 -165 -792 0
792 313 -461 0
-792 313 461 0
792 -313 461 0
-792 -313 -461 0
313 -793 0
792 -793 0
-313 -792 793 0
165 -794 0
17 -794 0
-165 -17 794 0
-793 610 0
-794 610 0
793 794 -610 0
18 166 -795 0
-18 166 795 0
18 -166 795 0
-18 -166 -795 0
795 314 -462 0
-795 314 462 0
795 -314 462 0
-795 -314 -462 0
314 -796 0
795 -796 0
-314 -795 796 0
166 -797 0
18 -797 0
-166 -18 797 0
-796 611 0
-797 611 0
796 797 -611 0
19 167 -798 0
-19 167 798 0
19 -167 798 0
-19 -167 -798 0
798 315 -463 0
-798 315 463 0
798 -315 463 0
-798 -315 -463 0
315 -799 0
798 -799 0
-315 -798 799 0
167 -800 0
19 -800 0
-167 -19 800 0
-799 612 0
-800 612 0
799 800 -612 0
20 168 -801 0
-20 168 801 0
20 -168 801 0
-20 -168 -801 0
801 316 -464 0
-801 316 464 0
801 -316 464 0
-801 -316 -464 0
316 -802 0
801 -802 0
-316 -801 802 0
168 -803 0
20 -803 0
-168 -20 803 0
-802 613 0
-803 613 0
802 803 -613 0
21 169 -804 0
-21 169 804 0
21 -169 804 0
-21 -169 -804 0
804 317 -465 0
-804 317 465 0
804 -317 465 0
-804 -317 -465 0
317 -805 0
804 -805 0
-317 -804 805 0
169 -806 0
21 -806 0
-169 -21 806 0
-805 614 0
-806 614 0
805 806 -614 0
22 170 -807 0
-22 170 807 0
22 -170 807 0
-22 -170 -807 0
807 318 -466 0
-807 318 466 0
807 -318 466 0
-807 -318 -466 0
318 -808 0
807 -808 0
-318 -807 808 0
170 -809 0
22 -809 0
-170 -22 809 0
-808 615 0
-809 615 0
808 809 -615 0
23 171 -810 0
-23 171 810 0
23 -171 810 0
-23 -171 -810 0
810 319 -467 0
-810 319 467 0
810 -319 467 0
-810 -319 -467 0
319 -811 0
810 -811 0
-319 -810 811 0
171 -812 0
23 -812 0
-171 -23 812 0
-811 616 0
-812 616 0
811 812 -616 0
24 172 -813 0
-24 172 813 0
24 -172 813 0
-24 -172 -813 0
813 320 -468 0
-813 320 468 0
813 -320 468 0
-813 -320 -468 0
320 -814 0
813 -814 0
-320 -813 814 0
172 -815 0
24 -815 0
-172 -24 815 0
-814 617 0
-815 617 0
814 815 -617 0
25 173 -816 0
-25 173 816 0
25 -173 816 0
-25 -173 -816 0
816 321 -469 0
-816 321 469 0
816 -321 469 0
-816 -321 -469 0
321 -817 0
816 -817 0
-321 -816 817 0
173 -818 0
25 -818 0
-173 -25 818 0
-817 618 0
-818 618 0
817 818 -618 0
26 174 -819 0
-26 174 819 0
26 -174 819 0
-26 -174 -819 0
819 322 -470 0
-819 322 470 0
819 -322 470 0
-819 -322 -470 0
322 -820 0
819 -820 0
-322 -819 820 0
174 -821 0
26 -821 0
-174 -26 821 0
-820 619 0
-821 619 0
820 821 -619 0
27 175 -822 0
-27 175 822 0
27 -175 822 0
-27 -175 -822 0
822 323 -471 0
-822 323 471 0
822 -323 471 0
-822 -323 -471 0
323 -823 0
822 -823 0
-323 -822 823 0
175 -824 0
27 -824 0
-175 -27 824 0
-823 620 0
-824 620 0
823 824 -620 0
28 176 -825 0
-28 176 825 0
28 -176 825 0
-28 -176 -825 0
825 324 -472 0
-825 324 472 0
825 -324 472 0
-825 -324 -472 0
324 -826 0
825 -826 0
-324 -825 826 0
176 -827 0
28 -827 0
-176 -28 827 0
-826 621 0
-827 621 0
826 827 -621 0
29 177 -828 0
-29 177 828 0
29 -177 828 0
-29 -177 -828 0
828 325 -473 0
-828 325 473 0
828 -325 473 0
-828 -325 -473 0
325 -829 0
828 -829 0
-325 -828 829 0
177 -830 0
29 -830 0
-177 -29 830 0
-829 622 0
-830 622 0
829 830 -622 0
30 178 -831 0
-30 178 831 0
30 -178 831 0
-30 -178 -831 0
831 326 -474 0
-831 326 474 0
831 -326 474 0
-831 -326 -474 0
326 -832 0
831 -832 0
-326 -831 832 0
178 -833 0
30 -833 0
-178 -30 833 0
-832 623 0
-833 623 0
832 833 -623 0
31 179 -834 0
-31 179 834 0
31 -179 834 0
-31 -179 -834 0
834 327 -475 0
-834 327 475 0
834 -327 475 0
-834 -327 -475 0
327 -835 0
834 -835 0
-327 -834 835 0
179 -836 0
31 -836 0
-179 -31 836 0
-835 624 0
-836 624 0
835 836 -624 0
32 180 -837 0
-32 180 837 0
32 -180 837 0
-32 -180 -837 0
837 328 -476 0
-837 328 476 0
837 -328 476 0
-837 -328 -476 0
328 -838 0
837 -838 0
-328 -837 838 0
180 -839 0
32 -839 0
-180 -32 839 0
-838 625 0
-839 625 0
838 839 -625 0
33 181 -840 0
-33 181 840 0
33 -181 840 0
-33 -181 -840 0
840 329 -477 0
-840 329 477 0
840 -329 477 0
-840 -329 -477 0
329 -841 0
840 -841 0
-329 -840 841 0
181 -842 0
33 -842 0
-181 -33 842 0
-841 626 0
-842 626 0
841 842 -626 0
34 182 -843 0
-34 182 843 0
34 -182 843 0
-34 -182 -843 0
843 330 -478 0
-843 330 478 0
843 -330 478 0
-843 -330 -478 0
330 -844 0
843 -844 0
-330 -843 844 0
182 -845 0
34 -845 0
-182 -34 845 0
-844 627 0
-845 627 0
844 845 -627 0
35 183 -846 0
-35 183 846 0
35 -183 846 0
-35 -183 -846 0
846 331 -479 0
-846 331 479 0
846 -331 479 0
-846 -331 -479 0
331 -847 0
846 -847 0
-331 -846 847 0
183 -848 0
35 -848 0
-183 -35 848 0
-847 628 0
-848 628 0
847 848 -628 0
36 184 -849 0
-36 184 849 0
36 -184 849 0
-36 -184 -849 0
849 332 -480 0
-849 332 480 0
849 -332 480 0
-849 -332 -480 0
332 -850 0
849 -850 0
-332 -849 850 0
184 -851 0
36 -851 0
-184 -36 851 0
-850 629 0
-851 629 0
850 851 -629 0
37 185 -852 0
-37 185 852 0
37 -185 852 0
-37 -185 -852 0
852 333 -481 0
-852 333 481 0
852 -333 481 0
-852 -333 -481 0
333 -853 0
852 -853 0
-333 -852 853 0
185 -854 0
37 -854 0
-185 -37 854 0
-853 630 0
-854 630 0
853 854 -630 0
38 186 -855 0
-38 186 855 0
38 -186 855 0
-38 -186 -855 0
855 334 -482 0
-855 334 482 0
855 -334 482 0
-855 -334 -482 0
334 -856 0
855 -856 0
-334 -855 856 0
186 -857 0
38 -857 0
-186 -38 857 0
-856 631 0
-857 631 0
856 857 -631 0
39 187 -858 0
-39 187 858 0
39 -187 858 0
-39 -187 -858 0
858 335 -483 0
-858 335 483 0
858 -335 483 0
-858 -335 -483 0
335 -859 0
858 -859 0
-335 -858 859 0
187 -860 0
39 -860 0
-187 -39 860 0
-859 632 0
-860 632 0
859 860 -632 0
40 188 -861 0
-40 188 861 0
40 -188 861 0
-40 -188 -861 0
861 336 -484 0
-861 336 484 0
861 -336 484 0
-861 -336 -484 0
336 -862 0
861 -862 0
-336 -861 862 0
188 -863 0
40 -863 0
-188 -40 863 0
-862 633 0
-863 633 0
862 863 -633 0
41 189 -864 0
-41 189 864 0
41 -189 864 0
-41 -189 -864 0
864 337 -485 0
-864 337 485 0
864 -337 485 0
-864 -337 -485 0
337 -865 0
864 -865 0
-337 -864 865 0
189 -866 0
41 -866 0
-189 -41 866 0
-865 634 0
-866 634 0
865 866 -634 0
42 190 -867 0
-42 190 867 0
42 -190 867 0
-42 -190 -867 0
867 338 -486 0
-867 338 486 0
867 -338 486 0
-867 -338 -486 0
338 -868 0
867 -868 0
-338 -867 868 0
190 -869 0
42 -869 0
-190 -42 869 0
-868 635 0
-869 635 0
868 869 -635 0
43 191 -870 0
-43 191 870 0
43 -191 870 0
-43 -191 -870 0
870 339 -487 0
-870 339 487 0
870 -339 487 0
-870 -339 -487 0
339 -871 0
870 -871 0
-339 -870 871 0
191 -872 0
43 -872 0
-191 -43 872 0
-871 636 0
-872 636 0
871 872 -636 0
44 192 -873 0
-44 192 873 0
44 -192 873 0
-44 -192 -873 0
873 340 -488 0
-873 340 488 0
873 -340 488 0
-873 -340 -488 0
340 -874 0
873 -874 0
-340 -873 874 0
192 -875 0
44 -875 0
-192 -44 875 0
-874 637 0
-875 637 0
874 875 -637 0
45 193 -876 0
-45 193 876 0
45 -193 876 0
-45 -193 -876 0
876 341 -489 0
-876 341 489 0
876 -341 489 0
-876 -341 -489 0
341 -877 0
876 -877 0
-341 -876 877 0
193 -878 0
45 -878 0
-193 -45 878 0
-877 638 0
-878 638 0
877 878 -638 0
46 194 -879 0
-46 194 879 0
46 -194 879 0
-46 -194 -879 0
879 342 -490 0
-879 342 490 0
879 -342 490 0
-879 -342 -490 0
342 -880 0
879 -880 0
-342 -879 880 0
194 -881 0
46 -881 0
-194 -46 881 0
-880 639 0
-881 639 0
880 881 -639 0
47 195 -882 0
-47 195 882 0
47 -195 882 0
-47 -195 -882 0
882 343 -491 0
-882 343 491 0
882 -343 491 0
-882 -343 -491 0
343 -883 0
882 -883 0
-343 -882 883 0
195 -884 0
47 -884 0
-195 -47 884 0
-883 640 0
-884 640 0
883 884 -640 0
48 196 -885 0
-48 196 885 0
48 -196 885 0
-48 -196 -885 0
885 344 -492 0
-885 344 492 0
885 -344 492 0
-885 -344 -492 0
344 -886 0
885 -886 0
-344 -885 886 0
196 -887 0
48 -887 0
-196 -48 887 0
-886 641 0
-887 641 0
886 887 -641 0
49 197 -888 0
-49 197 888 0
49 -197 888 0
-49 -197 -888 0
888 345 -493 0
-888 345 493 0
888 -345 493 0
-888 -345 -493 0
345 -889 0
888 -889 0
-345 -888 889 0
197 -890 0
49 -890 0
-197 -49 890 0
-889 642 0
-890 642 0
889 890 -642 0
50 198 -891 0
-50 198 891 0
50 -198 891 0
-50 -198 -891 0
891 346 -494 0
-891 346 494 0
891 -346 494 0
-891 -346 -494 0
346 -892 0
891 -892 0
-346 -891 892 0
198 -893 0
50 -893 0
-198 -50 893 0
-892 643 0
-893 643 0
892 893 -643 0
51 199 -894 0
-51 199 894 0
51 -199 894 0
-51 -199 -894 0
894 347 -495 0
-894 347 495 0
894 -347 495 0
-894 -347 -495 0
347 -895 0
894 -895 0
-347 -894 895 0
199 -896 0
51 -896 0
-199 -51 896 0
-895 644 0
-896 644 0
895 896 -644 0
52 200 -897 0
-52 200 897 0
52 -200 897 0
-52 -200 -897 0
897 348 -496 0
-897 348 496 0
897 -348 496 0
-897 -348 -496 0
348 -898 0
897 -898 0
-348 -897 898 0
200 -899 0
52 -899 0
-200 -52 899 0
-898 645 0
-899 645 0
898 899 -645 0
53 201 -900 0
-53 201 900 0
53 -201 900 0
-53 -201 -900 0
900 349 -497 0
-900 349 497 0
900 -349 497 0
-900 -349 -497 0
349 -901 0
900 -901 0
-349 -900 901 0
201 -902 0
53 -902 0
-201 -53 902 0
-901 646 0
-902 646 0
901 902 -646 0
54 202 -903 0
-54 202 903 0
54 -202 903 0
-54 -202 -903 0
903 350 -498 0
-903 350 498 0
903 -350 498 0
-903 -350 -498 0
350 -904 0
903 -904 0
-350 -903 904 0
202 -905 0
54 -905 0
-202 -54 905 0
-904 647 0
-905 647 0
904 905 -647 0
55 203 -906 0
-55 203 906 0
55 -203 906 0
-55 -203 -906 0
906 351 -499 0
-906 351 499 0
906 -351 499 0
-906 -351 -499 0
351 -907 0
906 -907 0
-351 -906 907 0
203 -908 0
55 -908 0
-203 -55 908 0
-907 648 0
-908 648 0
907 908 -648 0
56 204 -909 0
-56 204 909 0
56 -204 909 0
-56 -204 -909 0
909 352 -500 0
-909 352 500 0
909 -352 500 0
-909 -352 -500 0
352 -910 0
909 -910 0
-352 -909 910 0
204 -911 0
56 -911 0
-204 -56 911 0
-910 649 0
-911 649 0
910 911 -649 0
57 205 -912 0
-57 205 912 0
57 -205 912 0
-57 -205 -912 0
912 353 -501 0
-912 353 501 0
912 -353 501 0
-912 -353 -501 0
353 -913 0
912 -913 0
-353 -912 913 0
205 -914 0
57 -914 0
-205 -57 914 0
-913 650 0
-914 650 0
913 914 -650 0
58 206 -915 0
-58 206 915 0
58 -206 915 0
-58 -206 -915 0
915 354 -502 0
-915 354 502 0
915 -354 502 0
-915 -354 -502 0
354 -916 0
915 -916 0
-354 -915 916 0
206 -917 0
58 -917 0
-206 -58 917 0
-916 651 0
-917 651 0
916 917 -651 0
59 207 -918 0
-59 207 918 0
59 -207 918 0
-59 -207 -918 0
918 355 -503 0
-918 355 503 0
918 -355 503 0
-918 -355 -503 0
355 -919 0
918 -919 0
-355 -918 919 0
207 -920 0
59 -920 0
-207 -59 920 0
-919 652 0
-920 652 0
919 920 -652 0
60 208 -921 0
-60 208 921 0
60 -208 921 0
-60 -208 -921 0
921 356 -504 0
-921 356 504 0
921 -356 504 0
-921 -356 -504 0
356 -922 0
921 -922 0
-356 -921 922 0
208 -923 0
60 -923 0
-208 -60 923 0
-922 653 0
-923 653 0
922 923 -653 0
61 209 -924 0
-61 209 924 0
61 -209 924 0
-61 -209 -924 0
924 357 -505 0
-924 357 505 0
924 -357 505 0
-924 -357 -505 0
357 -925 0
924 -925 0
-357 -924 925 0
209 -926 0
61 -926 0
-209 -61 926 0
-925 654 0
-926 654 0
925 926 -654 0
62 210 -927 0
-62 210 927 0
62 -210 927 0
-62 -210 -927 0
927 358 -506 0
-927 358 506 0
927 -358 506 0
-927 -358 -506 0
358 -928 0
927 -928 0
-358 -927 928 0
210 -929 0
62 -929 0
-210 -62 929 0
-928 655 0
-929 655 0
928 929 -655 0
63 211 -930 0
-63 211 930 0
63 -211 930 0
-63 -211 -930 0
930 359 -507 0
-930 359 507 0
930 -359 507 0
-930 -359 -507 0
359 -931 0
930 -931 0
-359 -930 931 0
211 -932 0
63 -932 0
-211 -63 932 0
-931 656 0
-932 656 0
931 932 -656 0
64 212 -933 0
-64 212 933 0
64 -212 933 0
-64 -212 -933 0
933 360 -508 0
-933 360 508 0
933 -360 508 0
-933 -360 -508 0
360 -934 0
933 -934 0
-360 -933 934 0
212 -935 0
64 -935 0
-212 -64 935 0
-934 657 0
-935 657 0
934 935 -657 0
65 213 -936 0
-65 213 936 0
65 -213 936 0
-65 -213 -936 0
936 361 -509 0
-936 361 509 0
936 -361 509 0
-936 -361 -509 0
361 -937 0
936 -937 0
-361 -936 937 0
213 -938 0
65 -938 0
-213 -65 938 0
-937 658 0
-938 658 0
937 938 -658 0
66 214 -939 0
-66 214 939 0
66 -214 939 0
-66 -214 -939 0
939 362 -510 0
-939 362 510 0
939 -362 510 0
-939 -362 -510 0
362 -940 0
939 -940 0
-362 -939 940 0
214 -941 0
66 -941 0
-214 -66 941 0
-940 659 0
-941 659 0
940 941 -659 0
67 215 -942 0
-67 215 942 0
67 -215 942 0
-67 -215 -942 0
942 363 -511 0
-942 363 511 0
942 -363 511 0
-942 -363 -511 0
363 -943 0
942 -943 0
-363 -942 943 0
215 -944 0
67 -944 0
-215 -67 944 0
-943 660 0
-944 660 0
943 944 -660 0
68 216 -945 0
-68 216 945 0
68 -216 945 0
-68 -216 -945 0
945 364 -512 0
-945 364 512 0
945 -364 512 0
-945 -364 -512 0
364 -946 0
945 -946 0
-364 -945 946 0
216 -947 0
68 -947 0
-216 -68 947 0
-946 661 0
-947 661 0
946 947 -661 0
69 217 -948 0
-69 217 948 0
69 -217 948 0
-69 -217 -948 0
948 365 -513 0
-948 365 513 0
948 -365 513 0
-948 -365 -513 0
365 -949 0
948 -949 0
-365 -948 949 0
217 -950 0
69 -950 0
-217 -69 950 0
-949 662 0
-950 662 0
949 950 -662 0
70 218 -951 0
-70 218 951 0
70 -218 951 0
-70 -218 -951 0
951 366 -514 0
-951 366 514 0
951 -366 514 0
-951 -366 -514 0
366 -952 0
951 -952 0
-366 -951 952 0
218 -953 0
70 -953 0
-218 -70 953 0
-952 663 0
-953 663 0
952 953 -663 0
71 219 -954 0
-71 219 954 0
71 -219 954 0
-71 -219 -954 0
954 367 -515 0
-954 367 515 0
954 -367 515 0
-954 -367 -515 0
367 -955 0
954 -955 0
-367 -954 955 0
219 -956 0
71 -956 0
-219 -71 956 0
-955 664 0
-956 664 0
955 956 -664 0
72 220 -957 0
-72 220 957 0
72 -220 957 0
-72 -220 -957 0
957 368 -516 0
-957 368 516 0
957 -368 516 0
-957 -368 -516 0
368 -958 0
957 -958 0
-368 -957 958 0
220 -959 0
72 -959 0
-220 -72 959 0
-958 665 0
-959 665 0
958 959 -665 0
73 221 -960 0
-73 221 960 0
73 -221 960 0
-73 -221 -960 0
960 369 -517 0
-960 369 517 0
960 -369 517 0
-960 -369 -517 0
369 -961 0
960 -961 0
-369 -960 961 0
221 -962 0
73 -962 0
-221 -73 962 0
-961 666 0
-962 666 0
961 962 -666 0
74 222 -963 0
-74 222 963 0
74 -222 963 0
-74 -222 -963 0
963 370 -518 0
-963 370 518 0
963 -370 518 0
-963 -370 -518 0
370 -964 0
963 -964 0
-370 -963 964 0
222 -965 0
74 -965 0
-222 -74 965 0
-964 667 0
-965 667 0
964 965 -667 0
75 223 -966 0
-75 223 966 0
75 -223 966 0
-75 -223 -966 0
966 371 -519 0
-966 371 519 0
966 -371 519 0
-966 -371 -519 0
371 -967 0
966 -967 0
-371 -966 967 0
223 -968 0
75 -968 0
-223 -75 968 0
-967 668 0
-968 668 0
967 968 -668 0
76 224 -969 0
-76 224 969 0
76 -224 969 0
-76 -224 -969 0
969 372 -520 0
-969 372 520 0
969 -372 520 0
-969 -372 -520 0
372 -970 0
969 -970 0
-372 -969 970 0
224 -971 0
76 -971 0
-224 -76 971 0
-970 669 0
-971 669 0
970 971 -669 0
77 225 -972 0
-77 225 972 0
77 -225 972 0
-77 -225 -972 0
972 373 -521 0
-972 373 521 0
972 -373 521 0
-972 -373 -521 0
373 -973 0
972 -973 0
-373 -972 973 0
225 -974 0
77 -974 0
-225 -77 974 0
-973 670 0
-974 670 0
973 974 -670 0
78 226 -975 0
-78 226 975 0
78 -226 975 0
-78 -226 -975 0
975 374 -522 0
-975 374 522 0
975 -374 522 0
-975 -374 -522 0
374 -976 0
975 -976 0
-374 -975 976 0
226 -977 0
78 -977 0
-226 -78 977 0
-976 671 0
-977 671 0
976 977 -671 0
79 227 -978 0
-79 227 978 0
79 -227 978 0
-79 -227 -978 0
978 375 -523 0
-978 375 523 0
978 -375 523 0
-978 -375 -523 0
375 -979 0
978 -979 0
-375 -978 979 0
227 -980 0
79 -980 0
-227 -79 980 0
-979 672 0
-980 672 0
979 980 -672 0
80 228 -981 0
-80 228 981 0
80 -228 981 0
-80 -228 -981 0
981 376 -524 0
-981 376 524 0
981 -376 524 0
-981 -376 -524 0
376 -982 0
981 -982 0
-376 -981 982 0
228 -983 0
80 -983 0
-228 -80 983 0
-982 673 0
-983 673 0
982 983 -673 0
81 229 -984 0
-81 229 984 0
81 -229 984 0
-81 -229 -984 0
984 377 -525 0
-984 377 525 0
984 -377 525 0
-984 -377 -525 0
377 -985 0
984 -985 0
-377 -984 985 0
229 -986 0
81 -986 0
-229 -81 986 0
-985 674 0
-986 674 0
985 986 -674 0
82 230 -987 0
-82 230 987 0
82 -230 987 0
-82 -230 -987 0
987 378 -526 0
-987 378 526 0
987 -378 526 0
-987 -378 -526 0
378 -988 0
987 -988 0
-378 -987 988 0
230 -989 0
82 -989 0
-230 -82 989 0
-988 675 0
-989 675 0
988 989 -675 0
83 231 -990 0
-83 231 990 0
83 -231 990 0
-83 -231 -990 0
990 379 -527 0
-990 379 527 0
990 -379 527 0
-990 -379 -527 0
379 -991 0
990 -991 0
-379 -990 991 0
231 -992 0
83 -992 0
-231 -83 992 0
-991 676 0
-992 676 0
991 992 -676 0
84 232 -993 0
-84 232 993 0
84 -232 993 0
-84 -232 -993 0
993 380 -528 0
-993 380 528 0
993 -380 528 0
-993 -380 -528 0
380 -994 0
993 -994 0
-380 -993 994 0
232 -995 0
84 -995 0
-232 -84 995 0
-994 677 0
-995 677 0
994 995 -677 0
85 233 -996 0
-85 233 996 0
85 -233 996 0
-85 -233 -996 0
996 381 -529 0
-996 381 529 0
996 -381 529 0
-996 -381 -529 0
381 -997 0
996 -997 0
-381 -996 997 0
233 -998 0
85 -998 0
-233 -85 998 0
-997 678 0
-998 678 0
997 998 -678 0
86 234 -999 0
-86 234 999 0
86 -234 999 0
-86 -234 -999 0
999 382 -530 0
-999 382 530 0
999 -382 530 0
-999 -382 -530 0
382 -1000 0
999 -1000 0
-382 -999 1000 0
234 -1001 0
86 -1001 0
-234 -86 1001 0
-1000 679 0
-1001 679 0
1000 1001 -679 0
87 235 -1002 0
-87 235 1002 0
87 -235 1002 0
-87 -235 -1002 0
1002 383 -531 0
-1002 383 531 0
1002 -383 531 0
-1002 -383 -531 0
383 -1003 0
1002 -1003 0
-383 -1002 1003 0
235 -1004 0
87 -1004 0
-235 -87 1004 0
-1003 680 0
-1004 680 0
1003 1004 -680 0
88 236 -1005 0
-88 236 1005 0
88 -236 1005 0
-88 -236 -1005 0
1005 384 -532 0
-1005 384 532 0
1005 -384 532 0
-1005 -384 -532 0
384 -1006 0
1005 -1006 0
-384 -1005 1006 0
236 -1007 0
88 -1007 0
-236 -88 1007 0
-1006 681 0
-1007 681 0
1006 1007 -681 0
89 237 -1008 0
-89 237 1008 0
89 -237 1008 0
-89 -237 -1008 0
1008 385 -533 0
-1008 385 533 0
1008 -385 533 0
-1008 -385 -533 0
385 -1009 0
1008 -1009 0
-385 -1008 1009 0
237 -1010 0
89 -1010 0
-237 -89 1010 0
-1009 682 0
-1010 682 0
1009 1010 -682 0
90 238 -1011 0
-90 238 1011 0
90 -238 1011 0
-90 -238 -1011 0
1011 386 -534 0
-1011 386 534 0
1011 -386 534 0
-1011 -386 -534 0
386 -1012 0
1011 -1012 0
-386 -1011 1012 0
238 -1013 0
90 -1013 0
-238 -90 1013 0
-1012 683 0
-1013 683 0
1012 1013 -683 0
91 239 -1014 0
-91 239 1014 0
91 -239 1014 0
-91 -239 -1014 0
1014 387 -535 0
-1014 387 535 0
1014 -387 535 0
-1014 -387 -535 0
387 -1015 0
1014 -1015 0
-387 -1014 1015 0
239 -1016 0
91 -1016 0
-239 -91 1016 0
-1015 684 0
-1016 684 0
1015 1016 -684 0
92 240 -1017 0
-92 240 1017 0
92 -240 1017 0
-92 -240 -1017 0
1017 388 -536 0
-1017 388 536 0
1017 -388 536 0
-1017 -388 -536 0
388 -1018 0
1017 -1018 0
-388 -1017 1018 0
240 -1019 0
92 -1019 0
-240 -92 1019 0
-1018 685 0
-1019 685 0
1018 1019 -685 0
93 241 -1020 0
-93 241 1020 0
93 -241 1020 0
-93 -241 -1020 0
1020 389 -537 0
-1020 389 537 0
1020 -389 537 0
-1020 -389 -537 0
389 -1021 0
1020 -1021 0
-389 -1020 1021 0
241 -1022 0
93 -1022 0
-241 -93 1022 0
-1021 686 0
-1022 686 0
1021 1022 -686 0
94 242 -1023 0
-94 242 1023 0
94 -242 1023 0
-94 -242 -1023 0
1023 390 -538 0
-1023 390 538 0
1023 -390 538 0
-1023 -390 -538 0
390 -1024 0
1023 -1024 0
-390 -1023 1024 0
242 -1025 0
94 -1025 0
-242 -94 1025 0
-1024 687 0
-1025 687 0
1024 1025 -687 0
95 243 -1026 0
-95 243 1026 0
95 -243 1026 0
-95 -243 -1026 0
1026 391 -539 0
-1026 391 539 0
1026 -391 539 0
-1026 -391 -539 0
391 -1027 0
1026 -1027 0
-391 -1026 1027 0
243 -1028 0
95 -1028 0
-243 -95 1028 0
-1027 688 0
-1028 688 0
1027 1028 -688 0
96 244 -1029 0
-96 244 1029 0
96 -244 1029 0
-96 -244 -1029 0
1029 392 -540 0
-1029 392 540 0
1029 -392 540 0
-1029 -392 -540 0
392 -1030 0
1029 -1030 0
-392 -1029 1030 0
244 -1031 0
96 -1031 0
-244 -96 1031 0
-1030 689 0
-1031 689 0
1030 1031 -689 0
97 245 -1032 0
-97 245 1032 0
97 -245 1032 0
-97 -245 -1032 0
1032 393 -541 0
-1032 393 541 0
1032 -393 541 0
-1032 -393 -541 0
393 -1033 0
1032 -1033 0
-393 -1032 1033 0
245 -1034 0
97 -1034 0
-245 -97 1034 0
-1033 690 0
-1034 690 0
1033 1034 -690 0
98 246 -1035 0
-98 246 1035 0
98 -246 1035 0
-98 -246 -1035 0
1035 394 -542 0
-1035 394 542 0
1035 -394 542 0
-1035 -394 -542 0
394 -1036 0
1035 -1036 0
-394 -1035 1036 0
246 -1037 0
98 -1037 0
-246 -98 1037 0
-1036 691 0
-1037 691 0
1036 1037 -691 0
99 247 -1038 0
-99 247 1038 0
99 -247 1038 0
-99 -247 -1038 0
1038 395 -543 0
-1038 395 543 0
1038 -395 543 0
-1038 -395 -543 0
395 -1039 0
1038 -1039 0
-395 -1038 1039 0
247 -1040 0
99 -1040 0
-247 -99 1040 0
-1039 692 0
-1040 692 0
1039 1040 -692 0
100 248 -1041 0
-100 248 1041 0
100 -248 1041 0
-100 -248 -1041 0
1041 396 -544 0
-1041 396 544 0
1041 -396 544 0
-1041 -396 -544 0
396 -1042 0
1041 -1042 0
-396 -1041 1042 0
248 -1043 0
100 -1043 0
-248 -100 1043 0
-1042 693 0
-1043 693 0
1042 1043 -693 0
101 249 -1044 0
-101 249 1044 0
101 -249 1044 0
-101 -249 -1044 0
1044 397 -545 0
-1044 397 545 0
1044 -397 545 0
-1044 -397 -545 0
397 -1045 0
1044 -1045 0
-397 -1044 1045 0
249 -1046 0
101 -1046 0
-249 -101 1046 0
-1045 694 0
-1046 694 0
1045 1046 -694 0
102 250 -1047 0
-102 250 1047 0
102 -250 1047 0
-102 -250 -1047 0
1047 398 -546 0
-1047 398 546 0
1047 -398 546 0
-1047 -398 -546 0
398 -1048 0
1047 -1048 0
-398 -1047 1048 0
250 -1049 0
102 -1049 0
-250 -102 1049 0
-1048 695 0
-1049 695 0
1048 1049 -695 0
103 251 -1050 0
-103 251 1050 0
103 -251 1050 0
-103 -251 -1050 0
1050 399 -547 0
-1050 399 547 0
1050 -399 547 0
-1050 -399 -547 0
399 -1051 0
1050 -1051 0
-399 -1050 1051 0
251 -1052 0
103 -1052 0
-251 -103 1052 0
-1051 696 0
-1052 696 0
1051 1052 -696 0
104 252 -1053 0
-104 252 1053 0
104 -252 1053 0
-104 -252 -1053 0
1053 400 -548 0
-1053 400 548 0
1053 -400 548 0
-1053 -400 -548 0
400 -1054 0
1053 -1054 0
-400 -1053 1054 0
252 -1055 0
104 -1055 0
-252 -104 1055 0
-1054 697 0
-1055 697 0
1054 1055 -697 0
105 253 -1056 0
-105 253 1056 0
105 -253 1056 0
-105 -253 -1056 0
1056 401 -549 0
-1056 401 549 0
1056 -401 549 0
-1056 -401 -549 0
401 -1057 0
1056 -1057 0
-401 -1056 1057 0
253 -1058 0
105 -1058 0
-253 -105 1058 0
-1057 698 0
-1058 698 0
1057 1058 -698 0
106 254 -1059 0
-106 254 1059 0
106 -254 1059 0
-106 -254 -1059 0
1059 402 -550 0
-1059 402 550 0
1059 -402 550 0
-1059 -402 -550 0
402 -1060 0
1059 -1060 0
-402 -1059 1060 0
254 -1061 0
106 -1061 0
-254 -106 1061 0
-1060 699 0
-1061 699 0
1060 1061 -699 0
107 255 -1062 0
-107 255 1062 0
107 -255 1062 0
-107 -255 -1062 0
1062 403 -551 0
-1062 403 551 0
1062 -403 551 0
-1062 -403 -551 0
403 -1063 0
1062 -1063 0
-403 -1062 1063 0
255 -1064 0
107 -1064 0
-255 -107 1064 0
-1063 700 0
-1064 700 0
1063 1064 -700 0
108 256 -1065 0
-108 256 1065 0
108 -256 1065 0
-108 -256 -1065 0
1065 404 -552 0
-1065 404 552 0
1065 -404 552 0
-1065 -404 -552 0
404 -1066 0
1065 -1066 0
-404 -1065 1066 0
256 -1067 0
108 -1067 0
-256 -108 1067 0
-1066 701 0
-1067 701 0
1066 1067 -701 0
109 257 -1068 0
-109 257 1068 0
109 -257 1068 0
-109 -257 -1068 0
1068 405 -553 0
-1068 405 553 0
1068 -405 553 0
-1068 -405 -553 0
405 -1069 0
1068 -1069 0
-405 -1068 1069 0
257 -1070 0
109 -1070 0
-257 -109 1070 0
-1069 702 0
-1070 702 0
1069 1070 -702 0
110 258 -1071 0
-110 258 1071 0
110 -258 1071 0
-110 -258 -1071 0
1071 406 -554 0
-1071 406 554 0
1071 -406 554 0
-1071 -406 -554 0
406 -1072 0
1071 -1072 0
-406 -1071 1072 0
258 -1073 0
110 -1073 0
-258 -110 1073 0
-1072 703 0
-1073 703 0
1072 1073 -703 0
111 259 -1074 0
-111 259 1074 0
111 -259 1074 0
-111 -259 -1074 0
1074 407 -555 0
-1074 407 555 0
1074 -407 555 0
-1074 -407 -555 0
407 -1075 0
1074 -1075 0
-407 -1074 1075 0
259 -1076 0
111 -1076 0
-259 -111 1076 0
-1075 704 0
-1076 704 0
1075 1076 -704 0
112 260 -1077 0
-112 260 1077 0
112 -260 1077 0
-112 -260 -1077 0
1077 408 -556 0
-1077 408 556 0
1077 -408 556 0
-1077 -408 -556 0
408 -1078 0
1077 -1078 0
-408 -1077 1078 0
260 -1079 0
112 -1079 0
-260 -112 1079 0
-1078 705 0
-1079 705 0
1078 1079 -705 0
113 261 -1080 0
-113 261 1080 0
113 -261 1080 0
-113 -261 -1080 0
1080 409 -557 0
-1080 409 557 0
1080 -409 557 0
-1080 -409 -557 0
409 -1081 0
1080 -1081 0
-409 -1080 1081 0
261 -1082 0
113 -1082 0
-261 -113 1082 0
-1081 706 0
-1082 706 0
1081 1082 -706 0
114 262 -1083 0
-114 262 1083 0
114 -262 1083 0
-114 -262 -1083 0
1083 410 -558 0
-1083 410 558 0
1083 -410 558 0
-1083 -410 -558 0
410 -1084 0
1083 -1084 0
-410 -1083 1084 0
262 -1085 0
114 -1085 0
-262 -114 1085 0
-1084 707 0
-1085 707 0
1084 1085 -707 0
115 263 -1086 0
-115 263 1086 0
115 -263 1086 0
-115 -263 -1086 0
1086 411 -559 0
-1086 411 559 0
1086 -411 559 0
-1086 -411 -559 0
411 -1087 0
1086 -1087 0
-411 -1086 1087 0
263 -1088 0
115 -1088 0
-263 -115 1088 0
-1087 708 0
-1088 708 0
1087 1088 -708 0
116 264 -1089 0
-116 264 1089 0
116 -264 1089 0
-116 -264 -1089 0
1089 412 -560 0
-1089 412 560 0
1089 -412 560 0
-1089 -412 -560 0
412 -1090 0
1089 -1090 0
-412 -1089 1090 0
264 -1091 0
116 -1091 0
-264 -116 1091 0
-1090 709 0
-1091 709 0
1090 1091 -709 0
117 265 -1092 0
-117 265 1092 0
117 -265 1092 0
-117 -265 -1092 0
1092 413 -561 0
-1092 413 561 0
1092 -413 561 0
-1092 -413 -561 0
413 -1093 0
1092 -1093 0
-413 -1092 1093 0
265 -1094 0
117 -1094 0
-265 -117 1094 0
-1093 710 0
-1094 710 0
1093 1094 -710 0
118 266 -1095 0
-118 266 1095 0
118 -266 1095 0
-118 -266 -1095 0
1095 414 -562 0
-1095 414 562 0
1095 -414 562 0
-1095 -414 -562 0
414 -1096 0
1095 -1096 0
-414 -1095 1096 0
266 -1097 0
118 -1097 0
-266 -118 1097 0
-1096 711 0
-1097 711 0
1096 1097 -711 0
119 267 -1098 0
-119 267 1098 0
119 -267 1098 0
-119 -267 -1098 0
1098 415 -563 0
-1098 415 563 0
1098 -415 563 0
-1098 -415 -563 0
415 -1099 0
1098 -1099 0
-415 -1098 1099 0
267 -1100 0
119 -1100 0
-267 -119 1100 0
-1099 712 0
-1100 712 0
1099 1100 -712 0
120 268 -1101 0
-120 268 1101 0
120 -268 1101 0
-120 -268 -1101 0
1101 416 -564 0
-1101 416 564 0
1101 -416 564 0
-1101 -416 -564 0
416 -1102 0
1101 -1102 0
-416 -1101 1102 0
268 -1103 0
120 -1103 0
-268 -120 1103 0
-1102 713 0
-1103 713 0
1102 1103 -713 0
121 269 -1104 0
-121 269 1104 0
121 -269 1104 0
-121 -269 -1104 0
1104 417 -565 0
-1104 417 565 0
1104 -417 565 0
-1104 -417 -565 0
417 -1105 0
1104 -1105 0
-417 -1104 1105 0
269 -1106 0
121 -1106 0
-269 -121 1106 0
-1105 714 0
-1106 714 0
1105 1106 -714 0
122 270 -1107 0
-122 270 1107 0
122 -270 1107 0
-122 -270 -1107 0
1107 418 -566 0
-1107 418 566 0
1107 -418 566 0
-1107 -418 -566 0
418 -1108 0
1107 -1108 0
-418 -1107 1108 0
270 -1109 0
122 -1109 0
-270 -122 1109 0
-1108 715 0
-1109 715 0
1108 1109 -715 0
123 271 -1110 0
-123 271 1110 0
123 -271 1110 0
-123 -271 -1110 0
1110 419 -567 0
-1110 419 567 0
1110 -419 567 0
-1110 -419 -567 0
419 -1111 0
1110 -1111 0
-419 -1110 1111 0
271 -1112 0
123 -1112 0
-271 -123 1112 0
-1111 716 0
-1112 716 0
1111 1112 -716 0
124 272 -1113 0
-124 272 1113 0
124 -272 1113 0
-124 -272 -1113 0
1113 420 -568 0
-1113 420 568 0
1113 -420 568 0
-1113 -420 -568 0
420 -1114 0
1113 -1114 0
-420 -1113 1114 0
272 -1115 0
124 -1115 0
-272 -124 1115 0
-1114 717 0
-1115 717 0
1114 1115 -717 0
125 273 -1116 0
-125 273 1116 0
125 -273 1116 0
-125 -273 -1116 0
1116 421 -569 0
-1116 421 569 0
1116 -421 569 0
-1116 -421 -569 0
421 -1117 0
1116 -1117 0
-421 -1116 1117 0
273 -1118 0
125 -1118 0
-273 -125 1118 0
-1117 718 0
-1118 718 0
1117 1118 -718 0
126 274 -1119 0
-126 274 1119 0
126 -274 1119 0
-126 -274 -1119 0
1119 422 -570 0
-1119 422 570 0
1119 -422 570 0
-1119 -422 -570 0
422 -1120 0
1119 -1120 0
-422 -1119 1120 0
274 -1121 0
126 -1121 0
-274 -126 1121 0
-1120 719 0
-1121 719 0
1120 1121 -719 0
127 275 -1122 0
-127 275 1122 0
127 -275 1122 0
-127 -275 -1122 0
1122 423 -571 0
-1122 423 571 0
1122 -423 571 0
-1122 -423 -571 0
423 -1123 0
1122 -1123 0
-423 -1122 1123 0
275 -1124 0
127 -1124 0
-275 -127 1124 0
-1123 720 0
-1124 720 0
1123 1124 -720 0
128 276 -1125 0
-128 276 1125 0
128 -276 1125 0
-128 -276 -1125 0
1125 424 -572 0
-1125 424 572 0
1125 -424 572 0
-1125 -424 -572 0
424 -1126 0
1125 -1126 0
-424 -1125 1126 0
276 -1127 0
128 -1127 0
-276 -128 1127 0
-1126 721 0
-1127 721 0
1126 1127 -721 0
129 277 -1128 0
-129 277 1128 0
129 -277 1128 0
-129 -277 -1128 0
1128 425 -573 0
-1128 425 573 0
1128 -425 573 0
-1128 -425 -573 0
425 -1129 0
1128 -1129 0
-425 -1128 1129 0
277 -1130 0
129 -1130 0
-277 -129 1130 0
-1129 722 0
-1130 722 0
1129 1130 -722 0
130 278 -1131 0
-130 278 1131 0
130 -278 1131 0
-130 -278 -1131 0
1131 426 -574 0
-1131 426 574 0
1131 -426 574 0
-1131 -426 -574 0
426 -1132 0
1131 -1132 0
-426 -1131 1132 0
278 -1133 0
130 -1133 0
-278 -130 1133 0
-1132 723 0
-1133 723 0
1132 1133 -723 0
131 279 -1134 0
-131 279 1134 0
131 -279 1134 0
-131 -279 -1134 0
1134 427 -575 0
-1134 427 575 0
1134 -427 575 0
-1134 -427 -575 0
427 -1135 0
1134 -1135 0
-427 -1134 1135 0
279 -1136 0
131 -1136 0
-279 -131 1136 0
-1135 724 0
-1136 724 0
1135 1136 -724 0
132 280 -1137 0
-132 280 1137 0
132 -280 1137 0
-132 -280 -1137 0
1137 428 -576 0
-1137 428 576 0
1137 -428 576 0
-1137 -428 -576 0
428 -1138 0
1137 -1138 0
-428 -1137 1138 0
280 -1139 0
132 -1139 0
-280 -132 1139 0
-1138 725 0
-1139 725 0
1138 1139 -725 0
133 281 -1140 0
-133 281 1140 0
133 -281 1140 0
-133 -281 -1140 0
1140 429 -577 0
-1140 429 577 0
1140 -429 577 0
-1140 -429 -577 0
429 -1141 0
1140 -1141 0
-429 -1140 1141 0
281 -1142 0
133 -1142 0
-281 -133 1142 0
-1141 726 0
-1142 726 0
1141 1142 -726 0
134 282 -1143 0
-134 282 1143 0
134 -282 1143 0
-134 -282 -1143 0
1143 430 -578 0
-1143 430 578 0
1143 -430 578 0
-1143 -430 -578 0
430 -1144 0
1143 -1144 0
-430 -1143 1144 0
282 -1145 0
134 -1145 0
-282 -134 1145 0
-1144 727 0
-1145 727 0
1144 1145 -727 0
135 283 -1146 0
-135 283 1146 0
135 -283 1146 0
-135 -283 -1146 0
1146 431 -579 0
-1146 431 579 0
1146 -431 579 0
-1146 -431 -579 0
431 -1147 0
1146 -1147 0
-431 -1146 1147 0
283 -1148 0
135 -1148 0
-283 -135 1148 0
-1147 728 0
-1148 728 0
1147 1148 -728 0
136 284 -1149 0
-136 284 1149 0
136 -284 1149 0
-136 -284 -1149 0
1149 432 -580 0
-1149 432 580 0
1149 -432 580 0
-1149 -432 -580 0
432 -1150 0
1149 -1150 0
-432 -1149 1150 0
284 -1151 0
136 -1151 0
-284 -136 1151 0
-1150 729 0
-1151 729 0
1150 1151 -729 0
137 285 -1152 0
-137 285 1152 0
137 -285 1152 0
-137 -285 -1152 0
1152 433 -581 0
-1152 433 581 0
1152 -433 581 0
-1152 -433 -581 0
433 -1153 0
1152 -1153 0
-433 -1152 1153 0
285 -1154 0
137 -1154 0
-285 -137 1154 0
-1153 730 0
-1154 730 0
1153 1154 -730 0
138 286 -1155 0
-138 286 1155 0
138 -286 1155 0
-138 -286 -1155 0
1155 434 -582 0
-1155 434 582 0
1155 -434 582 0
-1155 -434 -582 0
434 -1156 0
1155 -1156 0
-434 -1155 1156 0
286 -1157 0
138 -1157 0
-286 -138 1157 0
-1156 731 0
-1157 731 0
1156 1157 -731 0
139 287 -1158 0
-139 287 1158 0
139 -287 1158 0
-139 -287 -1158 0
1158 435 -583 0
-1158 435 583 0
1158 -435 583 0
-1158 -435 -583 0
435 -1159 0
1158 -1159 0
-435 -1158 1159 0
287 -1160 0
139 -1160 0
-287 -139 1160 0
-1159 732 0
-1160 732 0
1159 1160 -732 0
140 288 -1161 0
-140 288 1161 0
140 -288 1161 0
-140 -288 -1161 0
1161 436 -584 0
-1161 436 584 0
1161 -436 584 0
-1161 -436 -584 0
436 -1162 0
1161 -1162 0
-436 -1161 1162 0
288 -1163 0
140 -1163 0
-288 -140 1163 0
-1162 733 0
-1163 733 0
1162 1163 -733 0
141 289 -1164 0
-141 289 1164 0
141 -289 1164 0
-141 -289 -1164 0
1164 437 -585 0
-1164 437 585 0
1164 -437 585 0
-1164 -437 -585 0
437 -1165 0
1164 -1165 0
-437 -1164 1165 0
289 -1166 0
141 -1166 0
-289 -141 1166 0
-1165 734 0
-1166 734 0
1165 1166 -734 0
142 290 -1167 0
-142 290 1167 0
142 -290 1167 0
-142 -290 -1167 0
1167 438 -586 0
-1167 438 586 0
1167 -438 586 0
-1167 -438 -586 0
438 -1168 0
1167 -1168 0
-438 -1167 1168 0
290 -1169 0
142 -1169 0
-290 -142 1169 0
-1168 735 0
-1169 735 0
1168 1169 -735 0
143 291 -1170 0
-143 291 1170 0
143 -291 1170 0
-143 -291 -1170 0
1170 439 -587 0
-1170 439 587 0
1170 -439 587 0
-1170 -439 -587 0
439 -1171 0
1170 -1171 0
-439 -1170 1171 0
291 -1172 0
143 -1172 0
-291 -143 1172 0
-1171 736 0
-1172 736 0
1171 1172 -736 0
144 292 -1173 0
-144 292 1173 0
144 -292 1173 0
-144 -292 -1173 0
1173 440 -588 0
-1173 440 588 0
1173 -440 588 0
-1173 -440 -588 0
440 -1174 0
1173 -1174 0
-440 -1173 1174 0
292 -1175 0
144 -1175 0
-292 -144 1175 0
-1174 737 0
-1175 737 0
1174 1175 -737 0
145 293 -1176 0
-145 293 1176 0
145 -293 1176 0
-145 -293 -1176 0
1176 441 -589 0
-1176 441 589 0
1176 -441 589 0
-1176 -441 -589 0
441 -1177 0
1176 -1177 0
-441 -1176 1177 0
293 -1178 0
145 -1178 0
-293 -145 1178 0
-1177 738 0
-1178 738 0
1177 1178 -738 0
146 294 -1179 0
-146 294 1179 0
146 -294 1179 0
-146 -294 -1179 0
1179 442 -590 0
-1179 442 590 0
1179 -442 590 0
-1179 -442 -590 0
442 -1180 0
1179 -1180 0
-442 -1179 1180 0
294 -1181 0
146 -1181 0
-294 -146 1181 0
-1180 739 0
-1181 739 0
1180 1181 -739 0
147 295 -1182 0
-147 295 1182 0
147 -295 1182 0
-147 -295 -1182 0
1182 443 -591 0
-1182 443 591 0
1182 -443 591 0
-1182 -443 -591 0
443 -1183 0
1182 -1183 0
-443 -1182 1183 0
295 -1184 0
147 -1184 0
-295 -147 1184 0
-1183 740 0
-1184 740 0
1183 1184 -740 0
148 296 -1185 0
-148 296 1185 0
148 -296 1185 0
-148 -296 -1185 0
1185 444 -592 0
-1185 444 592 0
1185 -444 592 0
-1185 -444 -592 0
444 -1186 0
1185 -1186 0
-444 -1185 1186 0
296 -1187 0
148 -1187 0
-296 -148 1187 0
-1186 741 0
-1187 741 0
1186 1187 -741 0
